<?xml version="1.0" encoding="UTF-8"?><osil xmlns="os.optimizationservices.org"   xmlns:xsi="http://www.w3.org/2001/XMLSchema-instance" xsi:schemaLocation="os.optimizationservices.org http://www.optimizationservices.org/schemas/2.0/OSiL.xsd" ><instanceHeader><name>q_20_10_25_4</name></instanceHeader><instanceData><variables numberOfVariables="20"><var name="x1" ub="1"/><var name="x2" ub="1"/><var name="x3" ub="1"/><var name="x4" ub="1"/><var name="x5" ub="1"/><var name="x6" ub="1"/><var name="x7" ub="1"/><var name="x8" ub="1"/><var name="x9" ub="1"/><var name="x10" ub="1"/><var name="x11" ub="1"/><var name="x12" ub="1"/><var name="x13" ub="1"/><var name="x14" ub="1"/><var name="x15" ub="1"/><var name="x16" ub="1"/><var name="x17" ub="1"/><var name="x18" ub="1"/><var name="x19" ub="1"/><var name="x20" ub="1"/></variables><objectives numberOfObjectives="1"><obj maxOrMin="min" name="defObj_x21" numberOfObjCoef="20"><coef idx="0">.8914</coef><coef idx="1">-.4873</coef><coef idx="2">.7907</coef><coef idx="3">-.7313</coef><coef idx="4">-.7602</coef><coef idx="5">.5532</coef><coef idx="6">-.6629</coef><coef idx="7">.8645</coef><coef idx="8">-6.2e-3</coef><coef idx="9">-.2134</coef><coef idx="10">-.8591</coef><coef idx="11">.1544</coef><coef idx="12">-.756</coef><coef idx="13">-.2826</coef><coef idx="14">-5.14e-2</coef><coef idx="15">-.7589</coef><coef idx="16">-.9586</coef><coef idx="17">7.1e-3</coef><coef idx="18">-.9469</coef><coef idx="19">-9.7e-3</coef></obj></objectives><constraints numberOfConstraints="10"><con name="e2" ub="72.985"/><con name="e3" ub="71.426"/><con name="e4" ub="13.921"/><con name="e5" ub="37.997"/><con name="e6" ub=".796"/><con name="e7" ub="45.338"/><con name="e8" ub="36.418"/><con name="e9" ub="60.455"/><con name="e10" ub="6.91"/><con name="e11" ub="8.069"/></constraints><linearConstraintCoefficients numberOfValues="200"><start><el mult="11" incr="20">0</el></start><colIdx><el mult="20" incr="1">0</el><el mult="20" incr="1">0</el><el mult="20" incr="1">0</el><el mult="20" incr="1">0</el><el mult="20" incr="1">0</el><el mult="20" incr="1">0</el><el mult="20" incr="1">0</el><el mult="20" incr="1">0</el><el mult="20" incr="1">0</el><el mult="20" incr="1">0</el></colIdx><value><el>.2314</el><el>.7529</el><el>-.4526</el><el>-.2999</el><el>.406</el><el>-.6505</el><el>.7775</el><el>.6882</el><el>-.293</el><el>.8557</el><el>.1114</el><el>.198</el><el>-.4119</el><el>.3731</el><el>-.4923</el><el>-.8287</el><el>.7871</el><el>-.9515</el><el>.7744</el><el>.6767</el><el>-.4354</el><el>-6.87e-2</el><el>-.9643</el><el>.7034</el><el>-.4064</el><el>-.2343</el><el>-.6763</el><el>.6846</el><el>.9334</el><el>-.6254</el><el>.9348</el><el>-.6663</el><el>-.6413</el><el>-.2235</el><el>.8645</el><el>-.6643</el><el>-.1999</el><el>-.7258</el><el>-.7233</el><el>.7456</el><el>-.5647</el><el>-.5639</el><el>-7.62e-2</el><el>.8391</el><el>.5634</el><el>.4504</el><el>.4463</el><el>-6.e-4</el><el>-.8429</el><el>.8194</el><el>9.6e-3</el><el>.9475</el><el>.3195</el><el>-.9747</el><el>-.2949</el><el>.2336</el><el>.4817</el><el>.5734</el><el>-.5373</el><el>.7049</el><el>-.2541</el><el>-.2915</el><el>.49</el><el>-.3685</el><el>.5508</el><el>-.3432</el><el>-.8968</el><el>-.9094</el><el>.1387</el><el>-.5574</el><el>.8792</el><el>-.2314</el><el>-.4063</el><el>.2312</el><el>-.9366</el><el>.6531</el><el>-.3668</el><el>.4111</el><el>.6731</el><el>.5564</el><el>.3916</el><el>.5206</el><el>.5354</el><el>-.4595</el><el>-.8079</el><el>-.2053</el><el>.6911</el><el>-.8627</el><el>-.642</el><el>-.7774</el><el>.6641</el><el>-.4726</el><el>.4219</el><el>.2989</el><el>.7658</el><el>.8197</el><el>-.6445</el><el>-.8204</el><el>-.8569</el><el>-.9461</el><el>.1383</el><el>-.7392</el><el>-.5785</el><el>-.8913</el><el>-.1961</el><el>.425</el><el>6.11e-2</el><el>-.767</el><el>-.5925</el><el>-.5909</el><el>.2244</el><el>2.29e-2</el><el>-.4235</el><el>6.1e-2</el><el>-.6407</el><el>-.801</el><el>8.97e-2</el><el>-.6056</el><el>.8974</el><el>.7053</el><el>.936</el><el>.805</el><el>-.4283</el><el>-.9095</el><el>.9922</el><el>8.08e-2</el><el>-.5678</el><el>.3035</el><el>-.9718</el><el>-.5353</el><el>-.1919</el><el>1.27e-2</el><el>-.5702</el><el>.6812</el><el>.609</el><el>7.29e-2</el><el>-.4155</el><el>.9038</el><el>-.604</el><el>-.8751</el><el>-4.96e-2</el><el>.1102</el><el>-.2869</el><el>-.9206</el><el>.4177</el><el>.2739</el><el>.2746</el><el>.1927</el><el>.5994</el><el>.4533</el><el>-.2373</el><el>-.8223</el><el>.7372</el><el>-.2406</el><el>-9.16e-2</el><el>.2571</el><el>5.91e-2</el><el>.7816</el><el>.1587</el><el>.2114</el><el>.3522</el><el>-.6512</el><el>-.2236</el><el>-.5792</el><el>6.2e-2</el><el>.1517</el><el>.3085</el><el>-.5717</el><el>-1.66e-2</el><el>.3993</el><el>.4148</el><el>-.6206</el><el>-2.55e-2</el><el>.7975</el><el>-.6697</el><el>.5939</el><el>.7959</el><el>-.4757</el><el>-.4011</el><el>.6824</el><el>-.4445</el><el>.2579</el><el>.5116</el><el>.5287</el><el>-.6376</el><el>-.361</el><el>.699</el><el>.2243</el><el>.9423</el><el>.3209</el><el>-.2626</el><el>-.1545</el><el>-.5469</el><el>1.26e-2</el><el>.983</el><el>.9377</el><el>-.3484</el><el>-.851</el><el>.9756</el><el>-.5277</el></value></linearConstraintCoefficients><quadraticCoefficients  numberOfQuadraticTerms="572" ><qTerm  idx="-1"  idxOne="0"  idxTwo="13"  coef="-.4386"/><qTerm  idx="-1"  idxOne="1"  idxTwo="3"  coef="1.0152"/><qTerm  idx="-1"  idxOne="1"  idxTwo="10"  coef="-.2143"/><qTerm  idx="-1"  idxOne="2"  idxTwo="6"  coef="1.276"/><qTerm  idx="-1"  idxOne="2"  idxTwo="9"  coef="1.2641"/><qTerm  idx="-1"  idxOne="2"  idxTwo="13"  coef="1.0448"/><qTerm  idx="-1"  idxOne="2"  idxTwo="18"  coef="-1.0861"/><qTerm  idx="-1"  idxOne="3"  idxTwo="7"  coef=".5004"/><qTerm  idx="-1"  idxOne="3"  idxTwo="12"  coef="1.7905"/><qTerm  idx="-1"  idxOne="3"  idxTwo="13"  coef=".2695"/><qTerm  idx="-1"  idxOne="3"  idxTwo="14"  coef="1.4773"/><qTerm  idx="-1"  idxOne="3"  idxTwo="16"  coef=".6736"/><qTerm  idx="-1"  idxOne="3"  idxTwo="18"  coef="-1.3377"/><qTerm  idx="-1"  idxOne="3"  idxTwo="19"  coef="-1.0392"/><qTerm  idx="-1"  idxOne="4"  idxTwo="5"  coef="1.846"/><qTerm  idx="-1"  idxOne="4"  idxTwo="8"  coef="-.8954"/><qTerm  idx="-1"  idxOne="4"  idxTwo="9"  coef="-.4763"/><qTerm  idx="-1"  idxOne="4"  idxTwo="14"  coef=".5161"/><qTerm  idx="-1"  idxOne="4"  idxTwo="15"  coef="1.7925"/><qTerm  idx="-1"  idxOne="5"  idxTwo="6"  coef="-.2081"/><qTerm  idx="-1"  idxOne="5"  idxTwo="10"  coef="-.4731"/><qTerm  idx="-1"  idxOne="5"  idxTwo="11"  coef="1.4758"/><qTerm  idx="-1"  idxOne="5"  idxTwo="13"  coef=".6038"/><qTerm  idx="-1"  idxOne="6"  idxTwo="10"  coef="1.3297"/><qTerm  idx="-1"  idxOne="6"  idxTwo="11"  coef="-.7949"/><qTerm  idx="-1"  idxOne="6"  idxTwo="12"  coef="-.7593"/><qTerm  idx="-1"  idxOne="6"  idxTwo="14"  coef="1.8134"/><qTerm  idx="-1"  idxOne="6"  idxTwo="16"  coef=".4536"/><qTerm  idx="-1"  idxOne="6"  idxTwo="17"  coef=".9981"/><qTerm  idx="-1"  idxOne="6"  idxTwo="19"  coef="-.9662"/><qTerm  idx="-1"  idxOne="7"  idxTwo="9"  coef="-1.9357"/><qTerm  idx="-1"  idxOne="7"  idxTwo="11"  coef="-1.7448"/><qTerm  idx="-1"  idxOne="7"  idxTwo="16"  coef="-.1926"/><qTerm  idx="-1"  idxOne="8"  idxTwo="10"  coef="1.039"/><qTerm  idx="-1"  idxOne="8"  idxTwo="19"  coef="7.61e-2"/><qTerm  idx="-1"  idxOne="9"  idxTwo="10"  coef="-1.0447"/><qTerm  idx="-1"  idxOne="10"  idxTwo="10"  coef=".8011"/><qTerm  idx="-1"  idxOne="10"  idxTwo="12"  coef=".4252"/><qTerm  idx="-1"  idxOne="10"  idxTwo="16"  coef=".9705"/><qTerm  idx="-1"  idxOne="11"  idxTwo="11"  coef="1.7018"/><qTerm  idx="-1"  idxOne="11"  idxTwo="13"  coef="-1.0859"/><qTerm  idx="-1"  idxOne="11"  idxTwo="17"  coef="-.7753"/><qTerm  idx="-1"  idxOne="11"  idxTwo="18"  coef="1.76"/><qTerm  idx="-1"  idxOne="12"  idxTwo="14"  coef="-1.466"/><qTerm  idx="-1"  idxOne="13"  idxTwo="13"  coef="1.e-4"/><qTerm  idx="-1"  idxOne="13"  idxTwo="14"  coef="-1.8844"/><qTerm  idx="-1"  idxOne="13"  idxTwo="16"  coef="-1.4142"/><qTerm  idx="-1"  idxOne="14"  idxTwo="14"  coef="-1.2678"/><qTerm  idx="-1"  idxOne="14"  idxTwo="19"  coef=".425"/><qTerm  idx="-1"  idxOne="16"  idxTwo="16"  coef="1.5231"/><qTerm  idx="-1"  idxOne="17"  idxTwo="17"  coef=".3796"/><qTerm  idx="-1"  idxOne="17"  idxTwo="19"  coef=".9037"/><qTerm  idx="0"  idxOne="0"  idxTwo="3"  coef="-.6497"/><qTerm  idx="0"  idxOne="0"  idxTwo="12"  coef=".433"/><qTerm  idx="0"  idxOne="1"  idxTwo="2"  coef="-1.8159"/><qTerm  idx="0"  idxOne="1"  idxTwo="8"  coef="-.4788"/><qTerm  idx="0"  idxOne="1"  idxTwo="9"  coef="-.6801"/><qTerm  idx="0"  idxOne="1"  idxTwo="12"  coef="-.3089"/><qTerm  idx="0"  idxOne="1"  idxTwo="17"  coef="-1.8642"/><qTerm  idx="0"  idxOne="2"  idxTwo="10"  coef="-1.6145"/><qTerm  idx="0"  idxOne="2"  idxTwo="12"  coef="-.146"/><qTerm  idx="0"  idxOne="2"  idxTwo="15"  coef="1.2454"/><qTerm  idx="0"  idxOne="2"  idxTwo="18"  coef=".7131"/><qTerm  idx="0"  idxOne="3"  idxTwo="3"  coef="1.9043"/><qTerm  idx="0"  idxOne="3"  idxTwo="5"  coef=".9021"/><qTerm  idx="0"  idxOne="3"  idxTwo="8"  coef="-1.8061"/><qTerm  idx="0"  idxOne="3"  idxTwo="9"  coef=".3172"/><qTerm  idx="0"  idxOne="3"  idxTwo="13"  coef="-1.4519"/><qTerm  idx="0"  idxOne="3"  idxTwo="14"  coef="1.8993"/><qTerm  idx="0"  idxOne="3"  idxTwo="18"  coef=".1246"/><qTerm  idx="0"  idxOne="4"  idxTwo="6"  coef="1.4875"/><qTerm  idx="0"  idxOne="4"  idxTwo="10"  coef=".1569"/><qTerm  idx="0"  idxOne="4"  idxTwo="13"  coef="-1.1825"/><qTerm  idx="0"  idxOne="4"  idxTwo="14"  coef="1.6349"/><qTerm  idx="0"  idxOne="4"  idxTwo="18"  coef=".2343"/><qTerm  idx="0"  idxOne="4"  idxTwo="19"  coef="-1.1968"/><qTerm  idx="0"  idxOne="5"  idxTwo="7"  coef="-1.5345"/><qTerm  idx="0"  idxOne="5"  idxTwo="11"  coef="-1.5555"/><qTerm  idx="0"  idxOne="5"  idxTwo="13"  coef="-1.921"/><qTerm  idx="0"  idxOne="5"  idxTwo="14"  coef="-1.5975"/><qTerm  idx="0"  idxOne="5"  idxTwo="18"  coef="-1.4111"/><qTerm  idx="0"  idxOne="6"  idxTwo="8"  coef="3.83e-2"/><qTerm  idx="0"  idxOne="7"  idxTwo="10"  coef="-1.1601"/><qTerm  idx="0"  idxOne="7"  idxTwo="15"  coef="-1.7589"/><qTerm  idx="0"  idxOne="7"  idxTwo="18"  coef="-1.1516"/><qTerm  idx="0"  idxOne="8"  idxTwo="15"  coef="1.2239"/><qTerm  idx="0"  idxOne="9"  idxTwo="11"  coef=".4091"/><qTerm  idx="0"  idxOne="9"  idxTwo="16"  coef="1.5114"/><qTerm  idx="0"  idxOne="10"  idxTwo="14"  coef="-.7003"/><qTerm  idx="0"  idxOne="10"  idxTwo="16"  coef="-.3998"/><qTerm  idx="0"  idxOne="10"  idxTwo="17"  coef="1.3084"/><qTerm  idx="0"  idxOne="10"  idxTwo="18"  coef="-1.7075"/><qTerm  idx="0"  idxOne="11"  idxTwo="12"  coef="-1.0147"/><qTerm  idx="0"  idxOne="11"  idxTwo="18"  coef="1.3447"/><qTerm  idx="0"  idxOne="11"  idxTwo="19"  coef=".5773"/><qTerm  idx="0"  idxOne="12"  idxTwo="13"  coef=".344"/><qTerm  idx="0"  idxOne="12"  idxTwo="15"  coef="-.3925"/><qTerm  idx="0"  idxOne="12"  idxTwo="17"  coef="1.85"/><qTerm  idx="0"  idxOne="12"  idxTwo="18"  coef="1.2553"/><qTerm  idx="0"  idxOne="13"  idxTwo="15"  coef=".1724"/><qTerm  idx="0"  idxOne="14"  idxTwo="18"  coef="-1.6092"/><qTerm  idx="0"  idxOne="15"  idxTwo="16"  coef=".6031"/><qTerm  idx="0"  idxOne="15"  idxTwo="18"  coef="-1.0817"/><qTerm  idx="0"  idxOne="18"  idxTwo="18"  coef=".4936"/><qTerm  idx="1"  idxOne="0"  idxTwo="2"  coef="-.2672"/><qTerm  idx="1"  idxOne="0"  idxTwo="18"  coef=".5651"/><qTerm  idx="1"  idxOne="1"  idxTwo="3"  coef=".8001"/><qTerm  idx="1"  idxOne="1"  idxTwo="14"  coef="1.4621"/><qTerm  idx="1"  idxOne="2"  idxTwo="3"  coef="-.7047"/><qTerm  idx="1"  idxOne="2"  idxTwo="5"  coef=".6325"/><qTerm  idx="1"  idxOne="2"  idxTwo="12"  coef="1.1261"/><qTerm  idx="1"  idxOne="2"  idxTwo="13"  coef="-.4839"/><qTerm  idx="1"  idxOne="3"  idxTwo="3"  coef="-.9895"/><qTerm  idx="1"  idxOne="3"  idxTwo="5"  coef="1.0313"/><qTerm  idx="1"  idxOne="3"  idxTwo="7"  coef="-1.9329"/><qTerm  idx="1"  idxOne="3"  idxTwo="10"  coef="-1.6096"/><qTerm  idx="1"  idxOne="3"  idxTwo="13"  coef=".1158"/><qTerm  idx="1"  idxOne="3"  idxTwo="17"  coef="1.4992"/><qTerm  idx="1"  idxOne="4"  idxTwo="9"  coef="-1.0292"/><qTerm  idx="1"  idxOne="4"  idxTwo="10"  coef="-1.6454"/><qTerm  idx="1"  idxOne="4"  idxTwo="12"  coef="-.5072"/><qTerm  idx="1"  idxOne="4"  idxTwo="14"  coef="-1.2968"/><qTerm  idx="1"  idxOne="5"  idxTwo="6"  coef="-.2532"/><qTerm  idx="1"  idxOne="5"  idxTwo="10"  coef="-.7798"/><qTerm  idx="1"  idxOne="5"  idxTwo="14"  coef=".6507"/><qTerm  idx="1"  idxOne="5"  idxTwo="16"  coef="1.2819"/><qTerm  idx="1"  idxOne="5"  idxTwo="18"  coef=".7294"/><qTerm  idx="1"  idxOne="6"  idxTwo="12"  coef="-.3356"/><qTerm  idx="1"  idxOne="6"  idxTwo="14"  coef="-.22"/><qTerm  idx="1"  idxOne="6"  idxTwo="16"  coef=".9984"/><qTerm  idx="1"  idxOne="6"  idxTwo="18"  coef=".209"/><qTerm  idx="1"  idxOne="7"  idxTwo="10"  coef="8.92e-2"/><qTerm  idx="1"  idxOne="7"  idxTwo="11"  coef="1.7744"/><qTerm  idx="1"  idxOne="7"  idxTwo="17"  coef=".3002"/><qTerm  idx="1"  idxOne="8"  idxTwo="9"  coef="-.914"/><qTerm  idx="1"  idxOne="8"  idxTwo="11"  coef="-1.2965"/><qTerm  idx="1"  idxOne="8"  idxTwo="13"  coef=".9145"/><qTerm  idx="1"  idxOne="8"  idxTwo="14"  coef=".7395"/><qTerm  idx="1"  idxOne="8"  idxTwo="19"  coef="-1.0519"/><qTerm  idx="1"  idxOne="9"  idxTwo="18"  coef="-1.0007"/><qTerm  idx="1"  idxOne="10"  idxTwo="10"  coef="-.1796"/><qTerm  idx="1"  idxOne="10"  idxTwo="12"  coef="1.1847"/><qTerm  idx="1"  idxOne="10"  idxTwo="14"  coef="-1.0623"/><qTerm  idx="1"  idxOne="11"  idxTwo="12"  coef="1.3924"/><qTerm  idx="1"  idxOne="11"  idxTwo="16"  coef="-.5857"/><qTerm  idx="1"  idxOne="11"  idxTwo="17"  coef="-1.9065"/><qTerm  idx="1"  idxOne="12"  idxTwo="17"  coef=".852"/><qTerm  idx="1"  idxOne="12"  idxTwo="19"  coef="-1.938"/><qTerm  idx="1"  idxOne="13"  idxTwo="16"  coef="-1.1451"/><qTerm  idx="1"  idxOne="13"  idxTwo="17"  coef="-1.2164"/><qTerm  idx="1"  idxOne="14"  idxTwo="14"  coef="-1.5664"/><qTerm  idx="1"  idxOne="14"  idxTwo="16"  coef=".8106"/><qTerm  idx="1"  idxOne="14"  idxTwo="17"  coef="-1.9766"/><qTerm  idx="1"  idxOne="15"  idxTwo="16"  coef="1.7827"/><qTerm  idx="1"  idxOne="15"  idxTwo="17"  coef="1.2036"/><qTerm  idx="1"  idxOne="18"  idxTwo="18"  coef="-.7627"/><qTerm  idx="2"  idxOne="0"  idxTwo="1"  coef=".7627"/><qTerm  idx="2"  idxOne="0"  idxTwo="15"  coef="6.69e-2"/><qTerm  idx="2"  idxOne="0"  idxTwo="16"  coef="-1.0061"/><qTerm  idx="2"  idxOne="1"  idxTwo="3"  coef="-1.7507"/><qTerm  idx="2"  idxOne="1"  idxTwo="9"  coef="-.8187"/><qTerm  idx="2"  idxOne="1"  idxTwo="16"  coef=".9367"/><qTerm  idx="2"  idxOne="1"  idxTwo="18"  coef="-.3339"/><qTerm  idx="2"  idxOne="2"  idxTwo="3"  coef="-1.325"/><qTerm  idx="2"  idxOne="2"  idxTwo="6"  coef="1.5468"/><qTerm  idx="2"  idxOne="2"  idxTwo="8"  coef=".8928"/><qTerm  idx="2"  idxOne="2"  idxTwo="9"  coef=".6247"/><qTerm  idx="2"  idxOne="2"  idxTwo="12"  coef="-1.1127"/><qTerm  idx="2"  idxOne="2"  idxTwo="15"  coef="1.1832"/><qTerm  idx="2"  idxOne="3"  idxTwo="7"  coef="1.0187"/><qTerm  idx="2"  idxOne="3"  idxTwo="8"  coef=".6791"/><qTerm  idx="2"  idxOne="3"  idxTwo="15"  coef="-1.7527"/><qTerm  idx="2"  idxOne="3"  idxTwo="16"  coef=".8952"/><qTerm  idx="2"  idxOne="4"  idxTwo="5"  coef="-1.8793"/><qTerm  idx="2"  idxOne="4"  idxTwo="6"  coef="-1.4801"/><qTerm  idx="2"  idxOne="4"  idxTwo="7"  coef="-.542"/><qTerm  idx="2"  idxOne="4"  idxTwo="10"  coef="-.2222"/><qTerm  idx="2"  idxOne="5"  idxTwo="6"  coef="-.1098"/><qTerm  idx="2"  idxOne="5"  idxTwo="11"  coef="-1.8981"/><qTerm  idx="2"  idxOne="6"  idxTwo="10"  coef="1.2721"/><qTerm  idx="2"  idxOne="6"  idxTwo="14"  coef="1.2024"/><qTerm  idx="2"  idxOne="6"  idxTwo="18"  coef="-.1148"/><qTerm  idx="2"  idxOne="7"  idxTwo="11"  coef="1.5566"/><qTerm  idx="2"  idxOne="7"  idxTwo="12"  coef="-1.4109"/><qTerm  idx="2"  idxOne="8"  idxTwo="10"  coef="1.2323"/><qTerm  idx="2"  idxOne="8"  idxTwo="15"  coef="-1.9627"/><qTerm  idx="2"  idxOne="8"  idxTwo="17"  coef="-1.4118"/><qTerm  idx="2"  idxOne="8"  idxTwo="18"  coef="1.8908"/><qTerm  idx="2"  idxOne="9"  idxTwo="11"  coef="1.5443"/><qTerm  idx="2"  idxOne="9"  idxTwo="15"  coef="1.5103"/><qTerm  idx="2"  idxOne="9"  idxTwo="16"  coef=".9244"/><qTerm  idx="2"  idxOne="9"  idxTwo="19"  coef=".2968"/><qTerm  idx="2"  idxOne="10"  idxTwo="11"  coef="1.2809"/><qTerm  idx="2"  idxOne="10"  idxTwo="15"  coef="-1.9653"/><qTerm  idx="2"  idxOne="10"  idxTwo="16"  coef="-.1849"/><qTerm  idx="2"  idxOne="11"  idxTwo="11"  coef="-.7801"/><qTerm  idx="2"  idxOne="11"  idxTwo="16"  coef=".8654"/><qTerm  idx="2"  idxOne="11"  idxTwo="18"  coef=".7219"/><qTerm  idx="2"  idxOne="12"  idxTwo="14"  coef=".2038"/><qTerm  idx="2"  idxOne="12"  idxTwo="15"  coef=".2878"/><qTerm  idx="2"  idxOne="12"  idxTwo="16"  coef="-.2806"/><qTerm  idx="2"  idxOne="12"  idxTwo="19"  coef="-.5104"/><qTerm  idx="2"  idxOne="13"  idxTwo="14"  coef=".3266"/><qTerm  idx="2"  idxOne="13"  idxTwo="17"  coef="1.3629"/><qTerm  idx="2"  idxOne="13"  idxTwo="18"  coef=".1415"/><qTerm  idx="2"  idxOne="13"  idxTwo="19"  coef="-.6068"/><qTerm  idx="2"  idxOne="14"  idxTwo="18"  coef="-.907"/><qTerm  idx="2"  idxOne="14"  idxTwo="19"  coef="-.9407"/><qTerm  idx="3"  idxOne="0"  idxTwo="12"  coef="1.6546"/><qTerm  idx="3"  idxOne="0"  idxTwo="17"  coef="1.0666"/><qTerm  idx="3"  idxOne="1"  idxTwo="6"  coef="1.7891"/><qTerm  idx="3"  idxOne="1"  idxTwo="7"  coef="-.5618"/><qTerm  idx="3"  idxOne="1"  idxTwo="10"  coef="-1.2844"/><qTerm  idx="3"  idxOne="1"  idxTwo="17"  coef="-1.3013"/><qTerm  idx="3"  idxOne="2"  idxTwo="2"  coef="-1.2974"/><qTerm  idx="3"  idxOne="2"  idxTwo="4"  coef="-1.8718"/><qTerm  idx="3"  idxOne="2"  idxTwo="5"  coef="-.7768"/><qTerm  idx="3"  idxOne="2"  idxTwo="13"  coef="1.7215"/><qTerm  idx="3"  idxOne="2"  idxTwo="16"  coef="-.9604"/><qTerm  idx="3"  idxOne="2"  idxTwo="17"  coef="-.6024"/><qTerm  idx="3"  idxOne="2"  idxTwo="18"  coef="-.6679"/><qTerm  idx="3"  idxOne="3"  idxTwo="5"  coef="-1.5645"/><qTerm  idx="3"  idxOne="3"  idxTwo="15"  coef="-.2739"/><qTerm  idx="3"  idxOne="4"  idxTwo="4"  coef=".3507"/><qTerm  idx="3"  idxOne="4"  idxTwo="7"  coef="-.3556"/><qTerm  idx="3"  idxOne="4"  idxTwo="9"  coef="1.781"/><qTerm  idx="3"  idxOne="4"  idxTwo="10"  coef="1.9098"/><qTerm  idx="3"  idxOne="4"  idxTwo="11"  coef="-.9062"/><qTerm  idx="3"  idxOne="4"  idxTwo="16"  coef=".2671"/><qTerm  idx="3"  idxOne="5"  idxTwo="8"  coef="-.3661"/><qTerm  idx="3"  idxOne="5"  idxTwo="11"  coef="-.5365"/><qTerm  idx="3"  idxOne="5"  idxTwo="13"  coef="-1.8814"/><qTerm  idx="3"  idxOne="6"  idxTwo="8"  coef=".4654"/><qTerm  idx="3"  idxOne="6"  idxTwo="15"  coef="-1.2749"/><qTerm  idx="3"  idxOne="6"  idxTwo="18"  coef=".3495"/><qTerm  idx="3"  idxOne="7"  idxTwo="8"  coef="1.851"/><qTerm  idx="3"  idxOne="7"  idxTwo="9"  coef=".175"/><qTerm  idx="3"  idxOne="7"  idxTwo="19"  coef="-1.701"/><qTerm  idx="3"  idxOne="8"  idxTwo="8"  coef="-1.0371"/><qTerm  idx="3"  idxOne="8"  idxTwo="15"  coef="9.4e-3"/><qTerm  idx="3"  idxOne="8"  idxTwo="16"  coef="-.6722"/><qTerm  idx="3"  idxOne="8"  idxTwo="17"  coef="-1.1732"/><qTerm  idx="3"  idxOne="8"  idxTwo="19"  coef="-1.6792"/><qTerm  idx="3"  idxOne="9"  idxTwo="10"  coef="-.1709"/><qTerm  idx="3"  idxOne="9"  idxTwo="11"  coef="1.2594"/><qTerm  idx="3"  idxOne="9"  idxTwo="16"  coef="-1.1657"/><qTerm  idx="3"  idxOne="9"  idxTwo="18"  coef="1.7681"/><qTerm  idx="3"  idxOne="10"  idxTwo="14"  coef="-5.01e-2"/><qTerm  idx="3"  idxOne="10"  idxTwo="15"  coef=".9271"/><qTerm  idx="3"  idxOne="11"  idxTwo="12"  coef="1.2822"/><qTerm  idx="3"  idxOne="11"  idxTwo="13"  coef=".8105"/><qTerm  idx="3"  idxOne="11"  idxTwo="18"  coef="-1.73"/><qTerm  idx="3"  idxOne="11"  idxTwo="19"  coef="-4.15e-2"/><qTerm  idx="3"  idxOne="12"  idxTwo="12"  coef="-1.9481"/><qTerm  idx="3"  idxOne="12"  idxTwo="19"  coef=".1169"/><qTerm  idx="3"  idxOne="13"  idxTwo="13"  coef="1.5874"/><qTerm  idx="3"  idxOne="13"  idxTwo="14"  coef=".5572"/><qTerm  idx="3"  idxOne="13"  idxTwo="17"  coef="-.8047"/><qTerm  idx="3"  idxOne="14"  idxTwo="17"  coef=".2208"/><qTerm  idx="3"  idxOne="15"  idxTwo="16"  coef="-1.348"/><qTerm  idx="4"  idxOne="0"  idxTwo="1"  coef="-1.4016"/><qTerm  idx="4"  idxOne="0"  idxTwo="17"  coef="-1.3748"/><qTerm  idx="4"  idxOne="1"  idxTwo="3"  coef="-.7552"/><qTerm  idx="4"  idxOne="1"  idxTwo="6"  coef=".3443"/><qTerm  idx="4"  idxOne="1"  idxTwo="14"  coef="-1.9655"/><qTerm  idx="4"  idxOne="1"  idxTwo="15"  coef="-1.5141"/><qTerm  idx="4"  idxOne="1"  idxTwo="16"  coef=".7521"/><qTerm  idx="4"  idxOne="1"  idxTwo="18"  coef="1.7106"/><qTerm  idx="4"  idxOne="2"  idxTwo="6"  coef=".732"/><qTerm  idx="4"  idxOne="2"  idxTwo="14"  coef="-1.4291"/><qTerm  idx="4"  idxOne="2"  idxTwo="15"  coef="1.3668"/><qTerm  idx="4"  idxOne="2"  idxTwo="17"  coef=".4289"/><qTerm  idx="4"  idxOne="2"  idxTwo="18"  coef="-.9516"/><qTerm  idx="4"  idxOne="3"  idxTwo="5"  coef=".2117"/><qTerm  idx="4"  idxOne="3"  idxTwo="9"  coef="1.0323"/><qTerm  idx="4"  idxOne="3"  idxTwo="17"  coef="1.4065"/><qTerm  idx="4"  idxOne="3"  idxTwo="18"  coef=".2658"/><qTerm  idx="4"  idxOne="4"  idxTwo="12"  coef="5.32e-2"/><qTerm  idx="4"  idxOne="4"  idxTwo="16"  coef="1.4843"/><qTerm  idx="4"  idxOne="5"  idxTwo="7"  coef="-.8237"/><qTerm  idx="4"  idxOne="5"  idxTwo="9"  coef="-1.064"/><qTerm  idx="4"  idxOne="5"  idxTwo="15"  coef="1.6873"/><qTerm  idx="4"  idxOne="5"  idxTwo="16"  coef="-.7897"/><qTerm  idx="4"  idxOne="5"  idxTwo="18"  coef="1.8674"/><qTerm  idx="4"  idxOne="6"  idxTwo="12"  coef="-.9678"/><qTerm  idx="4"  idxOne="6"  idxTwo="19"  coef="1.3463"/><qTerm  idx="4"  idxOne="7"  idxTwo="10"  coef=".1505"/><qTerm  idx="4"  idxOne="7"  idxTwo="13"  coef="1.2916"/><qTerm  idx="4"  idxOne="7"  idxTwo="16"  coef="-1.352"/><qTerm  idx="4"  idxOne="7"  idxTwo="18"  coef="-1.1305"/><qTerm  idx="4"  idxOne="8"  idxTwo="12"  coef="1.9022"/><qTerm  idx="4"  idxOne="8"  idxTwo="15"  coef="-.4317"/><qTerm  idx="4"  idxOne="8"  idxTwo="16"  coef="-1.37e-2"/><qTerm  idx="4"  idxOne="8"  idxTwo="18"  coef="1.9147"/><qTerm  idx="4"  idxOne="9"  idxTwo="14"  coef="1.4784"/><qTerm  idx="4"  idxOne="9"  idxTwo="15"  coef=".1484"/><qTerm  idx="4"  idxOne="9"  idxTwo="19"  coef="4.88e-2"/><qTerm  idx="4"  idxOne="10"  idxTwo="17"  coef="4.04e-2"/><qTerm  idx="4"  idxOne="11"  idxTwo="11"  coef=".5348"/><qTerm  idx="4"  idxOne="11"  idxTwo="16"  coef=".9166"/><qTerm  idx="4"  idxOne="11"  idxTwo="17"  coef="-1.2058"/><qTerm  idx="4"  idxOne="11"  idxTwo="18"  coef="-.3173"/><qTerm  idx="4"  idxOne="12"  idxTwo="14"  coef="-1.2929"/><qTerm  idx="4"  idxOne="12"  idxTwo="18"  coef="-6.46e-2"/><qTerm  idx="4"  idxOne="13"  idxTwo="13"  coef=".7781"/><qTerm  idx="4"  idxOne="13"  idxTwo="14"  coef="-8.11e-2"/><qTerm  idx="4"  idxOne="13"  idxTwo="17"  coef="1.5899"/><qTerm  idx="4"  idxOne="14"  idxTwo="18"  coef="1.9152"/><qTerm  idx="4"  idxOne="14"  idxTwo="19"  coef="1.55e-2"/><qTerm  idx="4"  idxOne="16"  idxTwo="18"  coef="1.8063"/><qTerm  idx="4"  idxOne="17"  idxTwo="18"  coef="1.531"/><qTerm  idx="4"  idxOne="19"  idxTwo="19"  coef=".6813"/><qTerm  idx="5"  idxOne="1"  idxTwo="1"  coef="1.4928"/><qTerm  idx="5"  idxOne="1"  idxTwo="3"  coef=".7197"/><qTerm  idx="5"  idxOne="1"  idxTwo="7"  coef="-1.809"/><qTerm  idx="5"  idxOne="2"  idxTwo="4"  coef="1.178"/><qTerm  idx="5"  idxOne="2"  idxTwo="13"  coef="-.8772"/><qTerm  idx="5"  idxOne="3"  idxTwo="10"  coef="1.8123"/><qTerm  idx="5"  idxOne="3"  idxTwo="11"  coef=".5097"/><qTerm  idx="5"  idxOne="3"  idxTwo="14"  coef="-1.118"/><qTerm  idx="5"  idxOne="3"  idxTwo="15"  coef="-1.7565"/><qTerm  idx="5"  idxOne="4"  idxTwo="9"  coef="-.8176"/><qTerm  idx="5"  idxOne="4"  idxTwo="10"  coef="-1.7309"/><qTerm  idx="5"  idxOne="4"  idxTwo="11"  coef="-1.9546"/><qTerm  idx="5"  idxOne="4"  idxTwo="17"  coef="1.6867"/><qTerm  idx="5"  idxOne="4"  idxTwo="18"  coef=".9016"/><qTerm  idx="5"  idxOne="5"  idxTwo="8"  coef="-1.2069"/><qTerm  idx="5"  idxOne="5"  idxTwo="9"  coef=".7358"/><qTerm  idx="5"  idxOne="5"  idxTwo="14"  coef="-1.0395"/><qTerm  idx="5"  idxOne="5"  idxTwo="15"  coef="1.8678"/><qTerm  idx="5"  idxOne="5"  idxTwo="16"  coef=".9802"/><qTerm  idx="5"  idxOne="5"  idxTwo="18"  coef=".8392"/><qTerm  idx="5"  idxOne="6"  idxTwo="10"  coef=".5485"/><qTerm  idx="5"  idxOne="6"  idxTwo="13"  coef="-1.6027"/><qTerm  idx="5"  idxOne="6"  idxTwo="16"  coef=".6051"/><qTerm  idx="5"  idxOne="6"  idxTwo="19"  coef="1.7156"/><qTerm  idx="5"  idxOne="7"  idxTwo="8"  coef="1.4524"/><qTerm  idx="5"  idxOne="7"  idxTwo="13"  coef="1.638"/><qTerm  idx="5"  idxOne="7"  idxTwo="14"  coef=".4482"/><qTerm  idx="5"  idxOne="7"  idxTwo="15"  coef="1.6816"/><qTerm  idx="5"  idxOne="7"  idxTwo="17"  coef="1.9594"/><qTerm  idx="5"  idxOne="7"  idxTwo="18"  coef="-1.4284"/><qTerm  idx="5"  idxOne="8"  idxTwo="9"  coef="1.5662"/><qTerm  idx="5"  idxOne="8"  idxTwo="11"  coef="-3.08e-2"/><qTerm  idx="5"  idxOne="8"  idxTwo="17"  coef="-1.4121"/><qTerm  idx="5"  idxOne="8"  idxTwo="18"  coef=".3254"/><qTerm  idx="5"  idxOne="8"  idxTwo="19"  coef="-.5746"/><qTerm  idx="5"  idxOne="9"  idxTwo="10"  coef="-.7628"/><qTerm  idx="5"  idxOne="9"  idxTwo="12"  coef=".6565"/><qTerm  idx="5"  idxOne="9"  idxTwo="13"  coef="1.7045"/><qTerm  idx="5"  idxOne="10"  idxTwo="13"  coef=".3135"/><qTerm  idx="5"  idxOne="10"  idxTwo="16"  coef="-1.3553"/><qTerm  idx="5"  idxOne="10"  idxTwo="18"  coef="-1.3501"/><qTerm  idx="5"  idxOne="10"  idxTwo="19"  coef="-1.8073"/><qTerm  idx="5"  idxOne="11"  idxTwo="13"  coef=".927"/><qTerm  idx="5"  idxOne="12"  idxTwo="14"  coef="-.7503"/><qTerm  idx="5"  idxOne="12"  idxTwo="17"  coef="1.5994"/><qTerm  idx="5"  idxOne="12"  idxTwo="19"  coef="1.0776"/><qTerm  idx="5"  idxOne="13"  idxTwo="13"  coef="1.1117"/><qTerm  idx="5"  idxOne="14"  idxTwo="15"  coef="-.7529"/><qTerm  idx="5"  idxOne="14"  idxTwo="17"  coef=".3363"/><qTerm  idx="5"  idxOne="15"  idxTwo="18"  coef="-1.4242"/><qTerm  idx="5"  idxOne="16"  idxTwo="17"  coef="-.6956"/><qTerm  idx="5"  idxOne="18"  idxTwo="18"  coef=".7477"/><qTerm  idx="6"  idxOne="0"  idxTwo="3"  coef="8.8e-3"/><qTerm  idx="6"  idxOne="0"  idxTwo="10"  coef=".2371"/><qTerm  idx="6"  idxOne="0"  idxTwo="17"  coef="-.7927"/><qTerm  idx="6"  idxOne="1"  idxTwo="16"  coef="-1.6039"/><qTerm  idx="6"  idxOne="2"  idxTwo="3"  coef="-.5444"/><qTerm  idx="6"  idxOne="2"  idxTwo="10"  coef="1.397"/><qTerm  idx="6"  idxOne="2"  idxTwo="11"  coef="1.5799"/><qTerm  idx="6"  idxOne="2"  idxTwo="14"  coef="-1.5183"/><qTerm  idx="6"  idxOne="3"  idxTwo="7"  coef="-.4608"/><qTerm  idx="6"  idxOne="3"  idxTwo="10"  coef="-.8923"/><qTerm  idx="6"  idxOne="3"  idxTwo="13"  coef="-.6421"/><qTerm  idx="6"  idxOne="3"  idxTwo="16"  coef=".5499"/><qTerm  idx="6"  idxOne="3"  idxTwo="18"  coef="1.2016"/><qTerm  idx="6"  idxOne="4"  idxTwo="9"  coef="-1.5376"/><qTerm  idx="6"  idxOne="4"  idxTwo="10"  coef=".9578"/><qTerm  idx="6"  idxOne="4"  idxTwo="16"  coef="-1.1428"/><qTerm  idx="6"  idxOne="5"  idxTwo="6"  coef="-1.8648"/><qTerm  idx="6"  idxOne="5"  idxTwo="10"  coef="-1.914"/><qTerm  idx="6"  idxOne="5"  idxTwo="12"  coef="1.3138"/><qTerm  idx="6"  idxOne="5"  idxTwo="14"  coef="-.428"/><qTerm  idx="6"  idxOne="6"  idxTwo="7"  coef="-1.5099"/><qTerm  idx="6"  idxOne="6"  idxTwo="10"  coef="-.3589"/><qTerm  idx="6"  idxOne="6"  idxTwo="11"  coef="-1.301"/><qTerm  idx="6"  idxOne="6"  idxTwo="13"  coef="1.3901"/><qTerm  idx="6"  idxOne="6"  idxTwo="16"  coef="-.7619"/><qTerm  idx="6"  idxOne="6"  idxTwo="17"  coef="-1.1288"/><qTerm  idx="6"  idxOne="7"  idxTwo="8"  coef=".2362"/><qTerm  idx="6"  idxOne="7"  idxTwo="9"  coef="-.9761"/><qTerm  idx="6"  idxOne="7"  idxTwo="11"  coef="-.8867"/><qTerm  idx="6"  idxOne="7"  idxTwo="12"  coef=".5211"/><qTerm  idx="6"  idxOne="7"  idxTwo="13"  coef="1.64"/><qTerm  idx="6"  idxOne="7"  idxTwo="19"  coef="-.6918"/><qTerm  idx="6"  idxOne="8"  idxTwo="9"  coef="-1.1513"/><qTerm  idx="6"  idxOne="8"  idxTwo="10"  coef="1.8287"/><qTerm  idx="6"  idxOne="8"  idxTwo="11"  coef="-.9083"/><qTerm  idx="6"  idxOne="8"  idxTwo="12"  coef="-1.875"/><qTerm  idx="6"  idxOne="8"  idxTwo="13"  coef="-.9572"/><qTerm  idx="6"  idxOne="8"  idxTwo="15"  coef="1.5963"/><qTerm  idx="6"  idxOne="9"  idxTwo="10"  coef="-1.2841"/><qTerm  idx="6"  idxOne="9"  idxTwo="12"  coef="-.8462"/><qTerm  idx="6"  idxOne="9"  idxTwo="13"  coef=".946"/><qTerm  idx="6"  idxOne="9"  idxTwo="18"  coef="-.5615"/><qTerm  idx="6"  idxOne="10"  idxTwo="14"  coef=".8131"/><qTerm  idx="6"  idxOne="10"  idxTwo="17"  coef="1.5319"/><qTerm  idx="6"  idxOne="11"  idxTwo="13"  coef=".87"/><qTerm  idx="6"  idxOne="11"  idxTwo="19"  coef="-1.1478"/><qTerm  idx="6"  idxOne="12"  idxTwo="13"  coef="-1.3523"/><qTerm  idx="6"  idxOne="12"  idxTwo="14"  coef="-1.8546"/><qTerm  idx="6"  idxOne="12"  idxTwo="16"  coef=".8909"/><qTerm  idx="6"  idxOne="13"  idxTwo="13"  coef=".101"/><qTerm  idx="6"  idxOne="13"  idxTwo="18"  coef="-.5251"/><qTerm  idx="6"  idxOne="14"  idxTwo="16"  coef="1.2525"/><qTerm  idx="7"  idxOne="0"  idxTwo="6"  coef="1.6302"/><qTerm  idx="7"  idxOne="0"  idxTwo="9"  coef=".9372"/><qTerm  idx="7"  idxOne="0"  idxTwo="17"  coef="-.7988"/><qTerm  idx="7"  idxOne="1"  idxTwo="1"  coef="-4.77e-2"/><qTerm  idx="7"  idxOne="1"  idxTwo="4"  coef="1.8814"/><qTerm  idx="7"  idxOne="1"  idxTwo="7"  coef=".2763"/><qTerm  idx="7"  idxOne="1"  idxTwo="8"  coef="1.798"/><qTerm  idx="7"  idxOne="1"  idxTwo="9"  coef="-4.4e-2"/><qTerm  idx="7"  idxOne="1"  idxTwo="10"  coef="-3.75e-2"/><qTerm  idx="7"  idxOne="1"  idxTwo="16"  coef=".9152"/><qTerm  idx="7"  idxOne="2"  idxTwo="6"  coef=".491"/><qTerm  idx="7"  idxOne="2"  idxTwo="9"  coef="-.3701"/><qTerm  idx="7"  idxOne="2"  idxTwo="11"  coef="-.8223"/><qTerm  idx="7"  idxOne="2"  idxTwo="12"  coef="1.6025"/><qTerm  idx="7"  idxOne="2"  idxTwo="15"  coef=".6226"/><qTerm  idx="7"  idxOne="2"  idxTwo="17"  coef="-1.3469"/><qTerm  idx="7"  idxOne="2"  idxTwo="19"  coef=".4485"/><qTerm  idx="7"  idxOne="3"  idxTwo="6"  coef="-1.1483"/><qTerm  idx="7"  idxOne="3"  idxTwo="12"  coef="1.0062"/><qTerm  idx="7"  idxOne="3"  idxTwo="17"  coef=".1028"/><qTerm  idx="7"  idxOne="4"  idxTwo="8"  coef=".855"/><qTerm  idx="7"  idxOne="4"  idxTwo="9"  coef="-1.7403"/><qTerm  idx="7"  idxOne="4"  idxTwo="14"  coef="1.1869"/><qTerm  idx="7"  idxOne="4"  idxTwo="18"  coef="-1.3973"/><qTerm  idx="7"  idxOne="5"  idxTwo="6"  coef=".391"/><qTerm  idx="7"  idxOne="5"  idxTwo="11"  coef="1.9995"/><qTerm  idx="7"  idxOne="6"  idxTwo="8"  coef="-1.0989"/><qTerm  idx="7"  idxOne="6"  idxTwo="14"  coef="1.8449"/><qTerm  idx="7"  idxOne="7"  idxTwo="7"  coef="-.2662"/><qTerm  idx="7"  idxOne="7"  idxTwo="8"  coef="-3.87e-2"/><qTerm  idx="7"  idxOne="7"  idxTwo="9"  coef="1.3136"/><qTerm  idx="7"  idxOne="7"  idxTwo="11"  coef=".8605"/><qTerm  idx="7"  idxOne="7"  idxTwo="15"  coef="-1.1809"/><qTerm  idx="7"  idxOne="8"  idxTwo="13"  coef="-1.2136"/><qTerm  idx="7"  idxOne="8"  idxTwo="15"  coef="-1.9652"/><qTerm  idx="7"  idxOne="8"  idxTwo="17"  coef=".9432"/><qTerm  idx="7"  idxOne="8"  idxTwo="18"  coef="-1.8467"/><qTerm  idx="7"  idxOne="9"  idxTwo="11"  coef="-.737"/><qTerm  idx="7"  idxOne="9"  idxTwo="15"  coef="-1.2802"/><qTerm  idx="7"  idxOne="9"  idxTwo="17"  coef=".1747"/><qTerm  idx="7"  idxOne="10"  idxTwo="11"  coef="1.5685"/><qTerm  idx="7"  idxOne="10"  idxTwo="15"  coef="-1.9107"/><qTerm  idx="7"  idxOne="10"  idxTwo="17"  coef="1.7629"/><qTerm  idx="7"  idxOne="11"  idxTwo="12"  coef="-1.9984"/><qTerm  idx="7"  idxOne="11"  idxTwo="18"  coef="1.8837"/><qTerm  idx="7"  idxOne="12"  idxTwo="18"  coef=".8227"/><qTerm  idx="7"  idxOne="13"  idxTwo="13"  coef="1.8365"/><qTerm  idx="7"  idxOne="13"  idxTwo="17"  coef="-.8722"/><qTerm  idx="7"  idxOne="13"  idxTwo="18"  coef="1.4205"/><qTerm  idx="7"  idxOne="13"  idxTwo="19"  coef="1.9838"/><qTerm  idx="7"  idxOne="14"  idxTwo="14"  coef="-1.4932"/><qTerm  idx="7"  idxOne="14"  idxTwo="17"  coef="1.6201"/><qTerm  idx="8"  idxOne="0"  idxTwo="10"  coef=".9837"/><qTerm  idx="8"  idxOne="0"  idxTwo="12"  coef="1.3647"/><qTerm  idx="8"  idxOne="1"  idxTwo="4"  coef="-1.9323"/><qTerm  idx="8"  idxOne="1"  idxTwo="7"  coef=".5924"/><qTerm  idx="8"  idxOne="1"  idxTwo="12"  coef="-.7508"/><qTerm  idx="8"  idxOne="1"  idxTwo="13"  coef="-.2849"/><qTerm  idx="8"  idxOne="2"  idxTwo="9"  coef="1.5069"/><qTerm  idx="8"  idxOne="2"  idxTwo="12"  coef=".4226"/><qTerm  idx="8"  idxOne="2"  idxTwo="14"  coef="-.6332"/><qTerm  idx="8"  idxOne="2"  idxTwo="15"  coef="-.6235"/><qTerm  idx="8"  idxOne="2"  idxTwo="17"  coef="1.8429"/><qTerm  idx="8"  idxOne="2"  idxTwo="18"  coef="1.5219"/><qTerm  idx="8"  idxOne="3"  idxTwo="4"  coef="-1.6216"/><qTerm  idx="8"  idxOne="3"  idxTwo="5"  coef="1.7849"/><qTerm  idx="8"  idxOne="3"  idxTwo="11"  coef="-.6455"/><qTerm  idx="8"  idxOne="3"  idxTwo="14"  coef="-.3672"/><qTerm  idx="8"  idxOne="4"  idxTwo="4"  coef="-.7072"/><qTerm  idx="8"  idxOne="4"  idxTwo="5"  coef="-.3172"/><qTerm  idx="8"  idxOne="4"  idxTwo="9"  coef="1.6226"/><qTerm  idx="8"  idxOne="4"  idxTwo="10"  coef="-1.7455"/><qTerm  idx="8"  idxOne="4"  idxTwo="19"  coef="-.3756"/><qTerm  idx="8"  idxOne="5"  idxTwo="9"  coef="-1.3353"/><qTerm  idx="8"  idxOne="5"  idxTwo="13"  coef="-.9365"/><qTerm  idx="8"  idxOne="6"  idxTwo="9"  coef="1.4768"/><qTerm  idx="8"  idxOne="6"  idxTwo="10"  coef="-.5545"/><qTerm  idx="8"  idxOne="6"  idxTwo="11"  coef="1.6442"/><qTerm  idx="8"  idxOne="6"  idxTwo="16"  coef="-8.24e-2"/><qTerm  idx="8"  idxOne="6"  idxTwo="18"  coef="-.5331"/><qTerm  idx="8"  idxOne="7"  idxTwo="12"  coef=".3849"/><qTerm  idx="8"  idxOne="8"  idxTwo="9"  coef="-1.019"/><qTerm  idx="8"  idxOne="8"  idxTwo="10"  coef="-.3173"/><qTerm  idx="8"  idxOne="8"  idxTwo="11"  coef=".1492"/><qTerm  idx="8"  idxOne="8"  idxTwo="13"  coef=".5317"/><qTerm  idx="8"  idxOne="8"  idxTwo="15"  coef="7.84e-2"/><qTerm  idx="8"  idxOne="8"  idxTwo="17"  coef="1.1118"/><qTerm  idx="8"  idxOne="8"  idxTwo="19"  coef="-1.7505"/><qTerm  idx="8"  idxOne="9"  idxTwo="16"  coef="-1.1833"/><qTerm  idx="8"  idxOne="9"  idxTwo="17"  coef="-.7909"/><qTerm  idx="8"  idxOne="10"  idxTwo="11"  coef="-.4735"/><qTerm  idx="8"  idxOne="10"  idxTwo="15"  coef="-1.9124"/><qTerm  idx="8"  idxOne="11"  idxTwo="12"  coef="-1.0272"/><qTerm  idx="8"  idxOne="11"  idxTwo="14"  coef="1.241"/><qTerm  idx="8"  idxOne="11"  idxTwo="18"  coef="-.3869"/><qTerm  idx="8"  idxOne="12"  idxTwo="15"  coef="-1.8173"/><qTerm  idx="8"  idxOne="13"  idxTwo="13"  coef="1.4751"/><qTerm  idx="8"  idxOne="13"  idxTwo="14"  coef="1.9191"/><qTerm  idx="8"  idxOne="13"  idxTwo="17"  coef="1.84e-2"/><qTerm  idx="8"  idxOne="14"  idxTwo="15"  coef="1.4375"/><qTerm  idx="8"  idxOne="14"  idxTwo="18"  coef="-.416"/><qTerm  idx="8"  idxOne="15"  idxTwo="18"  coef="1.3424"/><qTerm  idx="8"  idxOne="16"  idxTwo="17"  coef="1.515"/><qTerm  idx="8"  idxOne="18"  idxTwo="19"  coef="1.8667"/><qTerm  idx="9"  idxOne="0"  idxTwo="1"  coef="1.4134"/><qTerm  idx="9"  idxOne="0"  idxTwo="16"  coef="1.731"/><qTerm  idx="9"  idxOne="0"  idxTwo="18"  coef=".7759"/><qTerm  idx="9"  idxOne="1"  idxTwo="2"  coef=".4574"/><qTerm  idx="9"  idxOne="1"  idxTwo="5"  coef="-.8741"/><qTerm  idx="9"  idxOne="1"  idxTwo="7"  coef=".4106"/><qTerm  idx="9"  idxOne="1"  idxTwo="8"  coef="1.848"/><qTerm  idx="9"  idxOne="1"  idxTwo="9"  coef=".2872"/><qTerm  idx="9"  idxOne="1"  idxTwo="13"  coef="1.4452"/><qTerm  idx="9"  idxOne="1"  idxTwo="17"  coef="1.596"/><qTerm  idx="9"  idxOne="2"  idxTwo="9"  coef=".4519"/><qTerm  idx="9"  idxOne="2"  idxTwo="10"  coef="1.6929"/><qTerm  idx="9"  idxOne="2"  idxTwo="14"  coef="1.5072"/><qTerm  idx="9"  idxOne="3"  idxTwo="13"  coef="1.0194"/><qTerm  idx="9"  idxOne="3"  idxTwo="15"  coef="-.9562"/><qTerm  idx="9"  idxOne="3"  idxTwo="17"  coef="1.4645"/><qTerm  idx="9"  idxOne="4"  idxTwo="9"  coef="-1.1925"/><qTerm  idx="9"  idxOne="4"  idxTwo="10"  coef=".1883"/><qTerm  idx="9"  idxOne="4"  idxTwo="14"  coef=".3418"/><qTerm  idx="9"  idxOne="4"  idxTwo="16"  coef="-.4621"/><qTerm  idx="9"  idxOne="4"  idxTwo="18"  coef="-.2095"/><qTerm  idx="9"  idxOne="5"  idxTwo="8"  coef="-.885"/><qTerm  idx="9"  idxOne="5"  idxTwo="10"  coef=".1251"/><qTerm  idx="9"  idxOne="5"  idxTwo="19"  coef=".4508"/><qTerm  idx="9"  idxOne="7"  idxTwo="10"  coef="-1.0625"/><qTerm  idx="9"  idxOne="7"  idxTwo="12"  coef="1.35e-2"/><qTerm  idx="9"  idxOne="7"  idxTwo="13"  coef="-1.4142"/><qTerm  idx="9"  idxOne="7"  idxTwo="18"  coef="1.8483"/><qTerm  idx="9"  idxOne="8"  idxTwo="13"  coef="-1.2249"/><qTerm  idx="9"  idxOne="8"  idxTwo="15"  coef=".636"/><qTerm  idx="9"  idxOne="8"  idxTwo="18"  coef=".8065"/><qTerm  idx="9"  idxOne="8"  idxTwo="19"  coef="-1.1493"/><qTerm  idx="9"  idxOne="9"  idxTwo="14"  coef="-1.3548"/><qTerm  idx="9"  idxOne="9"  idxTwo="19"  coef="1.8085"/><qTerm  idx="9"  idxOne="10"  idxTwo="12"  coef="-.1997"/><qTerm  idx="9"  idxOne="10"  idxTwo="13"  coef="1.267"/><qTerm  idx="9"  idxOne="10"  idxTwo="16"  coef="-1.0757"/><qTerm  idx="9"  idxOne="11"  idxTwo="12"  coef=".7449"/><qTerm  idx="9"  idxOne="12"  idxTwo="14"  coef="9.63e-2"/><qTerm  idx="9"  idxOne="12"  idxTwo="15"  coef=".7091"/><qTerm  idx="9"  idxOne="12"  idxTwo="17"  coef=".7287"/><qTerm  idx="9"  idxOne="12"  idxTwo="19"  coef="-1.2112"/><qTerm  idx="9"  idxOne="13"  idxTwo="13"  coef=".8911"/><qTerm  idx="9"  idxOne="13"  idxTwo="15"  coef="-1.3729"/><qTerm  idx="9"  idxOne="13"  idxTwo="16"  coef="-1.1365"/><qTerm  idx="9"  idxOne="13"  idxTwo="17"  coef="-.1195"/><qTerm  idx="9"  idxOne="13"  idxTwo="18"  coef="-.8438"/><qTerm  idx="9"  idxOne="15"  idxTwo="16"  coef="-1.6737"/><qTerm  idx="9"  idxOne="15"  idxTwo="18"  coef="-1.7085"/><qTerm  idx="9"  idxOne="16"  idxTwo="17"  coef=".8206"/><qTerm  idx="9"  idxOne="17"  idxTwo="18"  coef=".6766"/><qTerm  idx="9"  idxOne="18"  idxTwo="19"  coef="-.3496"/></quadraticCoefficients></instanceData></osil>
